
n_res = 6;
rcap = [72, 83, 68, 66, 880, 864];
rtype = [1, 1, 1, 1, 2, 2];
n_tasks = 50;
modes =  [{1, 2, 3}, {4, 5, 6}, {7, 8, 9}, {10, 11, 12}, {13, 14, 15}, {16, 17, 18}, {19, 20, 21}, {22, 23, 24}, {25, 26, 27}, {28, 29, 30}, {31, 32, 33}, {34, 35, 36}, {37, 38, 39}, {40, 41, 42}, {43, 44, 45}, {46, 47, 48}, {49, 50, 51}, {52, 53, 54}, {55, 56, 57}, {58, 59, 60}, {61, 62, 63}, {64, 65, 66}, {67, 68, 69}, {70, 71, 72}, {73, 74, 75}, {76, 77, 78}, {79, 80, 81}, {82, 83, 84}, {85, 86, 87}, {88, 89, 90}, {91, 92, 93}, {94, 95, 96}, {97, 98, 99}, {100, 101, 102}, {103, 104, 105}, {106, 107, 108}, {109, 110, 111}, {112, 113, 114}, {115, 116, 117}, {118, 119, 120}, {121, 122, 123}, {124, 125, 126}, {127, 128, 129}, {130, 131, 132}, {133, 134, 135}, {136, 137, 138}, {139, 140, 141}, {142, 143, 144}, {145, 146, 147}, {148, 149, 150}];
succ =  [{29, 24, 17, 15, 14, 13, 10, 7}, {30, 22, 19, 14, 12, 7}, {30, 27, 21, 16, 12, 10}, {31, 26, 24, 23, 22, 17, 14, 11}, {32, 29, 28, 25, 24, 23, 15, 14}, {30, 28, 25, 24, 19, 14}, {38, 34, 32, 28, 26, 25, 23, 21, 20}, {50, 30, 28, 27, 26, 25, 14}, {50, 41, 32, 30, 28, 27, 26, 25, 20}, {38, 34, 31, 26, 25, 23, 22, 20}, {50, 41, 38, 36, 35, 27, 25, 21}, {41, 38, 37, 35, 34, 28, 24}, {38, 34, 28, 21, 20}, {41, 38, 37, 34, 20}, {37, 36, 30, 19}, {31, 23, 20}, {50, 48, 38, 36, 35, 34, 33, 30}, {41, 37, 20}, {50, 49, 27}, {48, 36, 35, 33}, {49, 45, 39, 37, 33}, {48, 39, 36, 33}, {50, 49, 48, 47, 46, 45, 43, 41, 39}, {49, 48, 45, 39, 33}, {45, 39, 37, 33}, {45, 39, 37, 33}, {48, 34, 33}, {39, 36, 33}, {49, 45, 44, 33}, {47, 46, 45, 40, 39}, {48, 46, 45, 40, 39}, {48, 47, 45, 44, 42, 40}, {47, 46, 42, 40}, {46, 45, 39}, {45, 43, 39}, {49, 46, 45, 42}, {48, 43, 42}, {39}, {44, 42}, {43}, {42}, {}, {}, {}, {}, {}, {}, {}, {}, {}];
n_opt = 150;
dur = [19, 27, 29, 2, 8, 21, 13, 17, 30, 8, 15, 25, 6, 12, 24, 11, 18, 26, 7, 11, 22, 9, 14, 20, 3, 14, 26, 5, 21, 22, 6, 8, 20, 8, 14, 23, 10, 11, 27, 10, 15, 16, 4, 13, 20, 23, 24, 28, 25, 27, 29, 11, 23, 24, 23, 24, 25, 20, 21, 25, 5, 13, 15, 16, 23, 28, 7, 27, 28, 3, 21, 26, 15, 17, 25, 13, 14, 19, 3, 4, 7, 7, 12, 19, 1, 6, 26, 8, 17, 26, 17, 21, 22, 18, 20, 23, 2, 3, 14, 11, 27, 28, 5, 6, 23, 1, 2, 24, 8, 19, 28, 3, 5, 14, 9, 20, 21, 1, 16, 25, 10, 21, 26, 14, 15, 16, 5, 7, 27, 18, 20, 30, 17, 23, 25, 1, 9, 19, 8, 22, 27, 2, 17, 20, 9, 23, 30, 3, 19, 28];
rreq = [|7, 3, 3, 21, 20, 19, 22, 19, 18, 21, 17, 16, 25, 25, 20, 26, 22, 22, 6, 3, 3, 28, 27, 27, 14, 14, 12, 22, 21, 14, 12, 12, 12, 21, 20, 19, 13, 9, 7, 9, 7, 6, 18, 16, 16, 23, 22, 19, 14, 13, 12, 19, 18, 3, 26, 25, 22, 18, 11, 5, 10, 4, 2, 15, 15, 15, 22, 20, 20, 20, 16, 15, 25, 16, 9, 17, 15, 10, 29, 22, 14, 25, 18, 14, 14, 14, 14, 22, 16, 12, 22, 17, 13, 16, 13, 7, 18, 16, 13, 12, 12, 5, 24, 18, 16, 15, 10, 2, 25, 17, 13, 27, 27, 23, 16, 14, 14, 15, 6, 2, 10, 9, 9, 20, 17, 17, 22, 21, 20, 22, 21, 21, 26, 17, 13, 10, 10, 10, 30, 29, 27, 17, 12, 5, 12, 9, 9, 26, 14, 11
 |18, 17, 17, 6, 4, 4, 10, 6, 3, 25, 23, 22, 25, 17, 12, 14, 13, 10, 16, 15, 13, 18, 13, 13, 5, 3, 3, 21, 12, 9, 29, 23, 17, 23, 19, 12, 9, 7, 6, 26, 25, 21, 18, 13, 6, 21, 16, 7, 23, 15, 13, 16, 15, 13, 23, 21, 15, 30, 27, 25, 17, 15, 9, 18, 8, 1, 28, 21, 13, 6, 5, 4, 22, 19, 14, 25, 20, 15, 4, 4, 4, 19, 14, 7, 16, 13, 12, 28, 28, 28, 28, 16, 11, 28, 21, 17, 10, 8, 7, 28, 23, 20, 19, 19, 17, 20, 12, 8, 22, 19, 15, 13, 11, 10, 21, 20, 20, 17, 12, 1, 28, 15, 14, 19, 18, 18, 2, 1, 1, 21, 13, 7, 20, 14, 9, 24, 22, 22, 3, 3, 3, 15, 13, 13, 12, 9, 2, 11, 8, 6
 |25, 21, 18, 21, 14, 8, 22, 20, 19, 23, 17, 6, 17, 12, 9, 22, 17, 8, 13, 12, 10, 17, 15, 14, 8, 6, 3, 24, 20, 13, 20, 9, 4, 4, 3, 3, 28, 18, 6, 23, 12, 9, 22, 17, 13, 10, 8, 3, 18, 16, 15, 28, 20, 12, 16, 13, 11, 5, 4, 2, 29, 26, 24, 21, 18, 12, 20, 20, 12, 12, 9, 7, 12, 8, 4, 11, 9, 3, 24, 16, 12, 30, 26, 23, 24, 20, 20, 10, 7, 6, 8, 8, 8, 21, 19, 19, 26, 25, 21, 3, 3, 3, 26, 18, 14, 21, 20, 13, 14, 9, 5, 23, 18, 17, 16, 13, 9, 27, 14, 6, 19, 18, 18, 25, 22, 19, 24, 24, 24, 22, 15, 11, 25, 19, 4, 29, 29, 28, 21, 20, 20, 22, 11, 7, 14, 8, 7, 25, 16, 11
 |11, 10, 9, 16, 14, 14, 25, 25, 23, 7, 6, 6, 14, 12, 12, 12, 9, 8, 20, 16, 14, 14, 10, 4, 25, 14, 10, 23, 21, 17, 8, 7, 2, 27, 12, 6, 19, 16, 8, 18, 15, 5, 20, 12, 4, 17, 14, 13, 21, 15, 10, 21, 19, 17, 10, 10, 7, 11, 8, 2, 23, 19, 17, 15, 13, 10, 20, 17, 11, 20, 12, 4, 18, 15, 11, 26, 19, 10, 15, 13, 7, 22, 18, 14, 13, 12, 8, 24, 24, 24, 18, 17, 16, 15, 11, 5, 25, 19, 9, 8, 5, 5, 10, 8, 8, 17, 16, 13, 16, 16, 15, 14, 14, 14, 21, 14, 10, 25, 19, 14, 18, 16, 14, 16, 11, 9, 19, 16, 13, 24, 23, 18, 16, 16, 15, 16, 11, 5, 29, 28, 26, 7, 7, 7, 19, 15, 15, 29, 19, 17
 |29, 13, 8, 20, 12, 11, 25, 19, 17, 12, 10, 7, 24, 15, 6, 21, 20, 17, 19, 17, 17, 24, 21, 17, 8, 5, 5, 10, 9, 4, 8, 6, 5, 20, 10, 5, 14, 13, 12, 27, 19, 16, 15, 11, 4, 28, 21, 7, 19, 18, 11, 22, 18, 14, 19, 14, 10, 18, 11, 8, 24, 22, 21, 23, 18, 14, 26, 16, 7, 30, 24, 23, 28, 27, 25, 27, 22, 15, 26, 25, 24, 11, 9, 7, 5, 5, 4, 9, 6, 1, 27, 13, 11, 21, 21, 20, 19, 14, 9, 29, 21, 17, 14, 10, 10, 18, 18, 18, 19, 16, 8, 17, 17, 17, 12, 10, 3, 25, 22, 21, 22, 15, 9, 26, 26, 19, 21, 13, 7, 11, 8, 3, 6, 5, 4, 26, 14, 6, 29, 18, 11, 14, 11, 6, 23, 22, 22, 12, 11, 11
 |18, 14, 11, 20, 10, 6, 28, 20, 18, 11, 9, 9, 22, 15, 11, 10, 9, 8, 23, 19, 10, 22, 21, 21, 5, 5, 4, 14, 12, 8, 14, 9, 7, 7, 4, 3, 30, 20, 18, 22, 19, 16, 27, 26, 24, 23, 17, 13, 20, 19, 19, 16, 16, 11, 22, 17, 16, 25, 25, 25, 7, 6, 6, 13, 10, 9, 15, 10, 6, 24, 19, 10, 15, 9, 4, 27, 13, 6, 12, 9, 6, 26, 21, 18, 8, 8, 7, 30, 30, 30, 17, 13, 9, 28, 28, 28, 15, 13, 13, 24, 24, 24, 21, 19, 17, 19, 19, 19, 21, 18, 13, 8, 5, 3, 19, 18, 14, 15, 12, 3, 20, 18, 18, 25, 25, 25, 25, 23, 19, 22, 10, 8, 20, 14, 6, 21, 12, 6, 12, 11, 10, 20, 17, 15, 22, 22, 22, 11, 7, 1|];